p edge 75 760 61
e 1 6
e 1 14
e 1 19
e 1 20
e 1 24
e 1 37
e 1 44
e 1 46
e 1 48
e 1 49
e 1 53
e 1 55
e 1 60
e 1 61
e 1 74
e 2 6
e 2 11
e 2 12
e 2 23
e 2 25
e 2 29
e 2 31
e 2 33
e 2 39
e 2 41
e 2 47
e 2 48
e 2 49
e 2 50
e 2 52
e 2 55
e 2 64
e 2 71
e 2 72
e 2 75
e 3 4
e 3 9
e 3 10
e 3 12
e 3 13
e 3 14
e 3 16
e 3 19
e 3 20
e 3 28
e 3 29
e 3 32
e 3 37
e 3 38
e 3 45
e 3 51
e 3 53
e 3 54
e 3 58
e 3 59
e 3 60
e 3 63
e 3 64
e 3 65
e 3 69
e 3 73
e 4 24
e 4 25
e 4 26
e 4 33
e 4 36
e 4 58
e 4 59
e 4 60
e 4 61
e 4 63
e 4 66
e 4 69
e 4 70
e 5 18
e 5 22
e 5 25
e 5 27
e 5 35
e 5 42
e 5 45
e 5 49
e 5 51
e 5 54
e 5 58
e 5 60
e 5 62
e 5 66
e 5 69
e 5 73
e 5 75
e 6 7
e 6 8
e 6 10
e 6 18
e 6 20
e 6 26
e 6 34
e 6 36
e 6 45
e 6 49
e 6 51
e 6 59
e 6 61
e 6 63
e 6 65
e 6 66
e 6 68
e 7 12
e 7 13
e 7 15
e 7 18
e 7 30
e 7 32
e 7 34
e 7 36
e 7 38
e 7 39
e 7 42
e 7 44
e 7 46
e 7 48
e 7 49
e 7 50
e 7 52
e 7 54
e 7 64
e 7 65
e 7 66
e 7 67
e 7 70
e 7 71
e 7 74
e 8 11
e 8 17
e 8 19
e 8 20
e 8 22
e 8 31
e 8 32
e 8 37
e 8 38
e 8 45
e 8 48
e 8 49
e 8 51
e 8 54
e 8 57
e 8 60
e 8 67
e 8 68
e 8 74
e 9 11
e 9 13
e 9 18
e 9 21
e 9 22
e 9 24
e 9 25
e 9 26
e 9 36
e 9 38
e 9 40
e 9 51
e 9 59
e 9 60
e 9 71
e 9 75
e 10 12
e 10 13
e 10 19
e 10 22
e 10 23
e 10 24
e 10 28
e 10 35
e 10 37
e 10 38
e 10 40
e 10 41
e 10 42
e 10 50
e 10 52
e 10 53
e 10 54
e 10 55
e 10 57
e 10 59
e 10 60
e 10 66
e 10 69
e 10 73
e 10 74
e 10 75
e 11 20
e 11 24
e 11 28
e 11 31
e 11 32
e 11 36
e 11 39
e 11 42
e 11 50
e 11 51
e 11 52
e 11 55
e 11 60
e 11 67
e 11 69
e 11 72
e 11 73
e 11 75
e 12 13
e 12 14
e 12 15
e 12 16
e 12 31
e 12 34
e 12 36
e 12 37
e 12 38
e 12 40
e 12 42
e 12 44
e 12 45
e 12 46
e 12 50
e 12 55
e 12 56
e 12 57
e 12 59
e 12 69
e 13 16
e 13 17
e 13 19
e 13 26
e 13 27
e 13 28
e 13 30
e 13 42
e 13 43
e 13 44
e 13 46
e 13 49
e 13 51
e 13 60
e 13 61
e 13 64
e 13 65
e 13 70
e 13 75
e 14 15
e 14 16
e 14 26
e 14 30
e 14 43
e 14 45
e 14 47
e 14 48
e 14 50
e 14 53
e 14 56
e 14 58
e 14 67
e 14 70
e 15 18
e 15 19
e 15 20
e 15 23
e 15 26
e 15 28
e 15 32
e 15 33
e 15 34
e 15 44
e 15 46
e 15 48
e 15 49
e 15 50
e 15 52
e 15 55
e 15 56
e 15 57
e 15 58
e 15 60
e 15 62
e 15 63
e 15 67
e 15 69
e 15 73
e 15 75
e 16 18
e 16 22
e 16 23
e 16 27
e 16 36
e 16 39
e 16 41
e 16 46
e 16 47
e 16 48
e 16 51
e 16 52
e 16 53
e 16 54
e 16 56
e 16 57
e 16 70
e 17 18
e 17 26
e 17 37
e 17 40
e 17 44
e 17 47
e 17 48
e 17 52
e 17 57
e 17 58
e 17 59
e 17 60
e 17 64
e 17 66
e 17 68
e 17 75
e 18 20
e 18 22
e 18 25
e 18 27
e 18 29
e 18 30
e 18 31
e 18 37
e 18 38
e 18 44
e 18 46
e 18 47
e 18 48
e 18 49
e 18 52
e 18 59
e 18 66
e 19 26
e 19 30
e 19 36
e 19 38
e 19 43
e 19 47
e 19 50
e 19 52
e 19 53
e 19 56
e 19 57
e 19 58
e 19 63
e 19 64
e 19 67
e 19 71
e 20 21
e 20 26
e 20 32
e 20 33
e 20 41
e 20 42
e 20 47
e 20 52
e 20 56
e 20 58
e 20 60
e 20 64
e 20 68
e 20 71
e 21 22
e 21 25
e 21 27
e 21 29
e 21 33
e 21 35
e 21 39
e 21 45
e 21 52
e 21 57
e 21 58
e 21 65
e 21 66
e 21 69
e 21 71
e 22 23
e 22 24
e 22 38
e 22 39
e 22 48
e 22 52
e 22 53
e 22 55
e 22 61
e 22 65
e 22 67
e 22 71
e 22 75
e 23 26
e 23 28
e 23 34
e 23 35
e 23 37
e 23 38
e 23 41
e 23 42
e 23 46
e 23 47
e 23 49
e 23 58
e 23 59
e 23 68
e 23 69
e 23 70
e 23 72
e 23 74
e 23 75
e 24 25
e 24 35
e 24 36
e 24 44
e 24 45
e 24 48
e 24 51
e 24 52
e 24 58
e 24 63
e 24 70
e 24 71
e 24 75
e 25 26
e 25 32
e 25 33
e 25 36
e 25 38
e 25 40
e 25 46
e 25 54
e 25 55
e 25 57
e 25 61
e 25 62
e 25 64
e 25 67
e 25 68
e 26 28
e 26 29
e 26 32
e 26 41
e 26 43
e 26 48
e 26 56
e 26 66
e 26 69
e 26 74
e 27 30
e 27 36
e 27 37
e 27 45
e 27 46
e 27 50
e 27 51
e 27 52
e 27 53
e 27 57
e 27 58
e 27 59
e 27 63
e 27 70
e 27 72
e 27 74
e 28 33
e 28 44
e 28 46
e 28 50
e 28 52
e 28 54
e 28 59
e 28 60
e 28 62
e 28 67
e 28 72
e 29 33
e 29 35
e 29 37
e 29 44
e 29 45
e 29 49
e 29 50
e 29 54
e 29 55
e 29 59
e 29 60
e 29 65
e 29 70
e 29 74
e 30 32
e 30 33
e 30 37
e 30 38
e 30 40
e 30 47
e 30 48
e 30 49
e 30 51
e 30 53
e 30 54
e 30 59
e 30 60
e 30 63
e 30 68
e 30 73
e 31 32
e 31 35
e 31 40
e 31 43
e 31 46
e 31 50
e 31 51
e 31 56
e 31 57
e 31 62
e 31 64
e 31 69
e 31 71
e 31 73
e 32 33
e 32 36
e 32 38
e 32 49
e 32 51
e 32 56
e 32 62
e 32 63
e 32 64
e 32 65
e 32 72
e 33 34
e 33 41
e 33 45
e 33 62
e 33 68
e 33 70
e 33 72
e 34 45
e 34 46
e 34 58
e 34 67
e 35 37
e 35 38
e 35 41
e 35 43
e 35 44
e 35 46
e 35 48
e 35 49
e 35 51
e 35 52
e 35 54
e 35 56
e 35 74
e 36 46
e 36 48
e 36 49
e 36 58
e 36 62
e 36 63
e 36 70
e 36 74
e 36 75
e 37 39
e 37 40
e 37 41
e 37 50
e 37 52
e 37 54
e 37 55
e 37 57
e 37 58
e 37 63
e 37 65
e 37 73
e 38 41
e 38 43
e 38 45
e 38 46
e 38 50
e 38 51
e 38 53
e 38 54
e 38 59
e 38 62
e 38 68
e 38 70
e 39 41
e 39 42
e 39 43
e 39 44
e 39 47
e 39 48
e 39 49
e 39 55
e 39 58
e 39 62
e 39 64
e 39 73
e 40 41
e 40 42
e 40 52
e 40 54
e 40 60
e 40 62
e 40 64
e 41 47
e 41 50
e 41 51
e 41 67
e 41 72
e 41 74
e 42 43
e 42 57
e 42 64
e 42 66
e 42 69
e 42 71
e 42 75
e 43 45
e 43 48
e 43 49
e 43 52
e 43 54
e 43 58
e 43 61
e 43 69
e 43 71
e 44 50
e 44 51
e 44 52
e 44 53
e 44 56
e 44 61
e 44 68
e 44 69
e 44 73
e 45 54
e 45 56
e 45 63
e 45 68
e 45 73
e 45 74
e 46 49
e 46 54
e 46 56
e 46 58
e 46 60
e 46 62
e 46 70
e 46 71
e 46 73
e 46 74
e 47 49
e 47 50
e 47 55
e 47 56
e 47 58
e 47 59
e 47 67
e 47 74
e 47 75
e 48 57
e 48 60
e 48 61
e 48 63
e 48 69
e 48 73
e 48 75
e 49 50
e 49 53
e 49 54
e 49 57
e 49 61
e 49 64
e 49 65
e 49 66
e 49 69
e 49 72
e 49 75
e 50 52
e 50 53
e 50 60
e 50 61
e 50 65
e 51 53
e 51 54
e 51 57
e 51 60
e 51 61
e 52 60
e 52 61
e 52 62
e 52 63
e 52 66
e 52 69
e 52 73
e 52 75
e 53 54
e 53 56
e 53 61
e 53 68
e 53 72
e 54 58
e 54 61
e 54 67
e 57 58
e 57 60
e 57 61
e 57 72
e 58 61
e 58 62
e 58 72
e 58 74
e 59 61
e 59 62
e 59 63
e 59 67
e 59 68
e 59 72
e 59 75
e 60 64
e 60 72
e 60 73
e 61 63
e 61 68
e 61 69
e 61 72
e 62 63
e 62 64
e 63 67
e 63 70
e 63 71
e 64 65
e 64 66
e 64 72
e 64 73
e 64 74
e 65 67
e 65 70
e 66 70
e 66 72
e 67 72
e 67 74
e 68 70
e 68 71
e 68 73
e 69 70
e 69 73
e 70 71
e 70 74
e 72 75
